100
128
60
11
39
42
38
12
41
29
24
50
37
40
18
44
8
56
32
25
47
13
24
22
19
11
38
34
19
17
48
11
43
42
30
19
35
26
17
5
19
26
61
20
42
63
17
12
38
16
32
23
18
19
37
63
16
50
54
34
17
25
35
44
1
24
60
18
58
25
28
28
19
48
18
64
20
53
19
23
18
59
32
33
20
64
61
57
41
30
39
41
45
61
22
47
44
63
64
45
34
24